n_res = 4;
rc = [ 36, 34, 43, 25 ];
n_tasks = 60;
d = [ 4, 4, 5, 2, 1, 1, 6, 2, 6, 7, 9, 4, 10, 6, 8, 3, 8, 8, 5, 6, 5, 3, 2, 3, 9, 2, 5, 4, 6, 3, 10, 7, 5, 8, 2, 2, 6, 10, 7, 5, 3, 8, 2, 4, 4, 8, 9, 5, 8, 3, 9, 2, 10, 6, 9, 3, 7, 8, 3, 6 ];
rr = [| 7, 9, 0, 0, 0, 4, 0, 0, 6, 2, 3, 0, 4, 0, 2, 8, 0, 3, 0, 8, 6, 0, 6, 9, 4, 7, 0, 3, 0, 0, 5, 5, 4, 8, 3, 9, 4, 9, 0, 2, 0, 0, 0, 0, 8, 3, 4, 0, 6, 0, 9, 0, 2, 0, 10, 10, 0, 9, 0, 9
      | 3, 7, 0, 0, 0, 0, 0, 7, 3, 0, 0, 0, 0, 2, 0, 9, 10, 7, 0, 0, 1, 0, 10, 5, 0, 0, 0, 0, 8, 1, 7, 6, 6, 6, 2, 10, 0, 0, 0, 0, 0, 10, 0, 0, 9, 0, 0, 0, 0, 1, 2, 0, 1, 1, 2, 1, 6, 6, 0, 0
      | 0, 0, 1, 3, 1, 2, 0, 8, 0, 10, 8, 8, 0, 0, 0, 9, 0, 0, 10, 8, 0, 5, 0, 0, 0, 8, 2, 10, 0, 0, 0, 0, 0, 0, 9, 0, 0, 0, 4, 9, 1, 0, 5, 0, 0, 0, 3, 5, 10, 0, 0, 8, 0, 0, 0, 0, 10, 5, 9, 10
      | 0, 10, 0, 7, 0, 0, 4, 4, 6, 6, 9, 0, 0, 0, 0, 0, 1, 1, 4, 1, 0, 0, 3, 10, 5, 0, 5, 0, 1, 0, 0, 0, 6, 0, 3, 5, 6, 0, 0, 0, 10, 0, 0, 1, 0, 0, 0, 4, 0, 3, 1, 0, 9, 0, 0, 0, 10, 0, 4, 0 |];
suc = [ { 5, 10, 13 },
       { 4, 6, 16 },
       { 7, 8, 29 },
       { 14, 23 },
       { 17, 18, 32 },
       { 50 },
       { 15, 21, 36 },
       { 9 },
       { 19, 20, 51 },
       { 11, 12, 26 },
       { 27, 48 },
       { 23, 47 },
       { 54, 60 },
       { 39 },
       { 56 },
       { 52 },
       { 24, 28 },
       { 35, 42 },
       { 23 },
       { 22, 25, 49 },
       { 31, 49 },
       { 34 },
       { 40 },
       { 34 },
       { 38 },
       { 33 },
       { 30, 32 },
       { 47 },
       { 35 },
       { 33 },
       { 32 },
       { 59 },
       { 41 },
       { 45 },
       { 37, 45 },
       { 59 },
       { 38, 53 },
       { 40 },
       { 41, 52 },
       { 44 },
       { 43, 54 },
       { 46, 55 },
       { 55 },
       { 58 },
       { 47 },
       { 58 },
       { 60 },
       { 53 },
       { 60 },
       { 56 },
       { 52 },
       { 59 },
       { 54, 55 },
       { 57 },
       { 57 },
       { 57 },
       { 58 },
       {  },
       {  },
       {  } ];
